param set_len = 12;
param target_sum = 3758640312;
param values := [1] 533486430 [2] 15620031 [3] 653699019 [4] 696316612 [5] 410101488 [6] 434006819 [7] 992471586 [8] 1059239021 [9] 345100618 [10] 1019971399 [11] 104362353 [12] 997446977 ;
